c This Formular is generated by mcnf
c
c    horn? no 
c    forced? no 
c    mixed sat? no 
c    clause length = 3 
c
p cnf 20  91 
 16 11 -18 0
7 4 -18 0
-18 -5 -16 0
11 18 7 0
-18 14 9 0
-10 -11 -20 0
20 2 -14 0
-1 19 16 0
-12 -1 -4 0
19 8 7 0
9 12 -18 0
-5 4 -17 0
10 8 17 0
-10 -15 -7 0
-7 -11 5 0
-1 -7 19 0
-14 -1 -7 0
8 -9 1 0
-10 -3 -19 0
-14 -3 -2 0
5 -17 6 0
%
0

94 48 22 50 1 83 52 100 99 64 65 14 24 51 99 8 78 55 83 69
